88
[[-1, 0, 0, 39663, 0, 45521, 0, 45095, 37932, 0, 0, 0, 0, 0, 0, 37313, 0, 0, 29028, 0, 0, 0, 0, 0, 0, 35898, 36748, 0, 0, 0, 9479, 0, 0, 0, 0, 37155, 0, 0, 0, 0, 25424, 20638, 0, 0, 0, 13281, 0, 0, 0, 19305, 0, 0, 0, 31641, 0, 0, 0, 0, 24362, 0, 26358, 28299, 0, 0, 0, 34562, 27620, 25600, 0, 0, 0, 0, 0, 0, 33487, 0, 26415, 0, 45632, 0, 0, 0, 0, 0, 0, 0, 33644, 43632],[0, -1, 0, 30249, 0, 0, 0, 0, 0, 23227, 0, 44832, 0, 0, 37842, 0, 0, 0, 14877, 0, 32056, 30793, 0, 0, 0, 0, 0, 0, 33639, 0, 45355, 0, 34535, 0, 0, 40308, 0, 0, 45158, 0, 0, 0, 36025, 0, 0, 0, 0, 0, 35507, 0, 0, 0, 0, 0, 0, 0, 0, 0, 0, 0, 0, 45852, 0, 0, 0, 22070, 0, 0, 0, 0, 0, 0, 31798, 0, 0, 0, 31480, 0, 0, 0, 0, 5941, 0, 0, 0, 0, 27653, 0],[0, 0, -1, 22727, 41651, 43704, 0, 39975, 0, 0, 0, 0, 19624, 19883, 0, 0, 0, 0, 0, 0, 0, 0, 0, 0, 0, 0, 34791, 0, 0, 0, 0, 0, 0, 0, 0, 0, 0, 0, 0, 15701, 0, 0, 0, 0, 0, 0, 0, 0, 44798, 30807, 0, 0, 21034, 44362, 32727, 0, 12829, 0, 0, 30374, 33161, 0, 35631, 0, 0, 0, 29914, 35463, 0, 40113, 0, 0, 0, 0, 0, 0, 0, 0, 35816, 0, 0, 31483, 0, 0, 31985, 0, 0, 5480],[39663, 30249, 22727, -1, 0, 33757, 0, 0, 0, 0, 0, 0, 0, 0, 0, 39072, 0, 43867, 0, 0, 39528, 0, 0, 41157, 43711, 0, 0, 0, 0, 21836, 0, 25883, 0, 44995, 0, 0, 0, 0, 0, 0, 39581, 0, 33965, 0, 0, 0, 39838, 32327, 0, 0, 0, 0, 0, 0, 45670, 0, 0, 0, 0, 0, 0, 0, 0, 35326, 0, 0, 33848, 0, 39390, 0, 0, 0, 36099, 0, 0, 0, 0, 41669, 32222, 0, 0, 0, 8771, 0, 11770, 30388, 7673, 0],[0, 0, 41651, 0, -1, 0, 44362, 0, 0, 0, 0, 0, 0, 34036, 36260, 0, 0, 8357, 0, 38771, 0, 39332, 0, 0, 0, 0, 0, 34563, 0, 0, 0, 0, 0, 0, 0, 0, 0, 0, 0, 0, 28391, 0, 0, 0, 0, 0, 0, 0, 0, 0, 0, 0, 36434, 0, 0, 0, 0, 0, 15829, 24916, 41914, 0, 0, 0, 0, 0, 0, 0, 34374, 0, 0, 0, 0, 0, 0, 0, 0, 19207, 0, 0, 0, 0, 0, 33615, 0, 41641, 0, 28209],[45521, 0, 43704, 33757, 0, -1, 0, 41715, 0, 0, 0, 9943, 0, 0, 0, 0, 41828, 0, 0, 0, 0, 40883, 0, 0, 10578, 39184, 18515, 0, 0, 0, 0, 0, 0, 0, 38708, 0, 42364, 0, 0, 0, 0, 0, 0, 0, 0, 0, 0, 0, 0, 0, 45555, 0, 0, 0, 0, 0, 0, 0, 22088, 28629, 0, 30368, 0, 0, 0, 0, 0, 44164, 0, 0, 0, 0, 0, 0, 0, 0, 0, 0, 25289, 0, 0, 0, 33819, 0, 0, 0, 0, 0],[0, 0, 0, 0, 44362, 0, -1, 0, 0, 0, 0, 45116, 0, 0, 0, 0, 0, 32564, 0, 0, 0, 0, 0, 0, 0, 0, 0, 0, 6413, 23315, 0, 0, 0, 31615, 45020, 13580, 0, 0, 24898, 24571, 0, 0, 0, 0, 34767, 0, 44991, 19678, 0, 0, 0, 0, 0, 0, 0, 0, 0, 0, 0, 0, 0, 0, 0, 0, 19671, 17836, 0, 0, 0, 0, 43766, 0, 0, 0, 0, 25577, 0, 44358, 0, 39306, 0, 0, 0, 10973, 22837, 0, 0, 0],[45095, 0, 39975, 0, 0, 41715, 0, -1, 0, 0, 0, 18739, 0, 0, 0, 0, 0, 0, 0, 0, 0, 0, 0, 0, 0, 28119, 0, 0, 0, 0, 0, 0, 46084, 38581, 0, 0, 0, 0, 30598, 30206, 0, 0, 0, 0, 0, 0, 0, 25970, 0, 30362, 0, 0, 0, 38521, 0, 17864, 0, 0, 16049, 30183, 0, 27818, 0, 0, 0, 0, 0, 35060, 0, 16071, 0, 43413, 0, 26516, 37548, 0, 0, 0, 0, 0, 0, 0, 0, 37066, 0, 0, 0, 28404],[37932, 0, 0, 0, 0, 0, 0, 0, -1, 33105, 0, 0, 0, 0, 0, 0, 0, 0, 0, 0, 41673, 0, 0, 38905, 21837, 0, 0, 0, 32472, 43681, 0, 0, 0, 0, 30254, 0, 0, 39437, 0, 0, 0, 0, 0, 35015, 0, 25159, 39774, 0, 41305, 11997, 0, 0, 11578, 0, 27672, 0, 0, 36554, 0, 0, 0, 0, 0, 39422, 0, 0, 0, 0, 0, 0, 0, 0, 28845, 0, 42539, 38031, 0, 0, 0, 32371, 43532, 0, 0, 35800, 0, 39011, 40127, 0],[0, 23227, 0, 0, 0, 0, 0, 0, 33105, -1, 0, 0, 33726, 0, 0, 0, 0, 30597, 30572, 0, 44043, 0, 8147, 0, 0, 0, 0, 0, 34837, 0, 0, 0, 0, 0, 0, 38819, 0, 0, 0, 0, 0, 44926, 0, 0, 0, 41942, 0, 0, 0, 0, 0, 0, 0, 34103, 42978, 0, 15367, 0, 34759, 0, 0, 0, 0, 0, 0, 0, 0, 40528, 0, 0, 0, 34377, 0, 0, 0, 0, 0, 42650, 0, 20296, 0, 2831, 0, 0, 0, 0, 0, 0],[0, 0, 0, 0, 0, 0, 0, 0, 0, 0, -1, 0, 0, 38555, 0, 37550, 46107, 0, 0, 0, 44250, 32430, 0, 0, 41750, 0, 0, 0, 46039, 0, 38604, 43216, 35089, 42471, 32479, 26074, 0, 0, 0, 0, 0, 0, 0, 20693, 0, 36136, 0, 0, 0, 34210, 24258, 0, 0, 0, 0, 0, 0, 0, 0, 41189, 0, 0, 0, 0, 0, 0, 0, 0, 0, 32488, 0, 0, 0, 28195, 0, 0, 0, 42775, 0, 0, 0, 32339, 0, 0, 0, 0, 0, 31475],[0, 44832, 0, 0, 0, 9943, 45116, 18739, 0, 0, 0, -1, 17374, 0, 0, 0, 0, 0, 0, 0, 40234, 0, 0, 44735, 0, 0, 0, 41374, 35675, 29845, 32927, 18096, 0, 0, 0, 36280, 0, 0, 28489, 0, 0, 0, 0, 0, 0, 0, 17900, 0, 0, 0, 0, 0, 0, 21811, 0, 35049, 0, 0, 0, 45392, 41394, 0, 0, 16132, 29492, 0, 0, 0, 0, 0, 0, 0, 5512, 23277, 45442, 38342, 0, 0, 0, 40468, 43732, 0, 0, 0, 0, 27818, 0, 0],[0, 0, 19624, 0, 0, 0, 0, 0, 0, 33726, 0, 17374, -1, 0, 43448, 0, 0, 37453, 0, 39240, 0, 45029, 31828, 0, 0, 0, 0, 0, 38875, 44033, 0, 45950, 0, 0, 0, 0, 0, 0, 0, 26116, 0, 0, 0, 0, 0, 42367, 0, 41909, 0, 0, 12734, 19180, 0, 0, 0, 0, 0, 0, 0, 31995, 45837, 0, 0, 0, 43796, 0, 0, 0, 0, 0, 38973, 0, 0, 0, 0, 0, 0, 0, 0, 31611, 0, 23413, 12018, 0, 0, 0, 0, 0],[0, 0, 19883, 0, 34036, 0, 0, 0, 0, 0, 38555, 0, 0, -1, 36004, 32772, 0, 0, 0, 0, 32683, 0, 12437, 0, 0, 0, 0, 0, 0, 0, 40128, 0, 0, 0, 0, 24601, 0, 0, 0, 0, 0, 0, 42226, 25735, 0, 0, 0, 0, 0, 0, 0, 41159, 0, 0, 0, 0, 3720, 0, 0, 0, 45369, 0, 36078, 0, 0, 0, 0, 44821, 0, 0, 41393, 34089, 38160, 0, 0, 0, 0, 0, 0, 42983, 0, 0, 0, 0, 0, 0, 0, 41240],[0, 37842, 0, 0, 36260, 0, 0, 0, 0, 0, 0, 0, 43448, 36004, -1, 0, 0, 0, 0, 0, 0, 41012, 26179, 0, 0, 0, 0, 27102, 0, 0, 37385, 0, 0, 0, 0, 20396, 0, 0, 0, 0, 0, 0, 0, 0, 0, 31801, 43333, 0, 46010, 0, 46271, 0, 45618, 41181, 0, 0, 0, 0, 0, 0, 0, 0, 0, 0, 0, 31450, 0, 0, 45156, 0, 29614, 0, 12355, 0, 0, 27938, 33523, 45936, 0, 0, 0, 30502, 7273, 34643, 28559, 42216, 0, 0],[37313, 0, 0, 39072, 0, 0, 0, 0, 0, 0, 37550, 0, 0, 32772, 0, -1, 0, 0, 0, 0, 0, 27365, 0, 0, 0, 0, 0, 0, 17256, 0, 0, 39356, 0, 23665, 0, 39547, 7853, 0, 0, 0, 0, 40717, 2465, 4030, 0, 0, 0, 0, 0, 0, 0, 44236, 0, 0, 39458, 0, 0, 37306, 29126, 0, 42424, 0, 0, 0, 0, 0, 0, 2451, 0, 0, 39191, 0, 0, 0, 0, 0, 0, 33072, 0, 0, 45576, 35619, 0, 0, 23352, 0, 0, 40189],[0, 0, 0, 0, 0, 41828, 0, 0, 0, 0, 46107, 0, 0, 0, 0, 0, -1, 34478, 36716, 38323, 0, 0, 0, 0, 0, 0, 0, 0, 0, 0, 0, 0, 39384, 0, 40885, 0, 0, 0, 0, 0, 0, 8551, 0, 0, 0, 0, 0, 46092, 0, 11977, 0, 0, 44690, 0, 0, 0, 0, 0, 0, 0, 25941, 0, 0, 0, 27565, 34864, 0, 0, 0, 0, 0, 29731, 0, 38790, 0, 27154, 0, 0, 0, 0, 0, 0, 0, 38788, 0, 0, 40597, 0],[0, 0, 0, 43867, 8357, 0, 32564, 0, 0, 30597, 0, 0, 37453, 0, 0, 0, 34478, -1, 0, 38074, 43853, 0, 0, 20878, 0, 0, 13903, 0, 0, 0, 34046, 0, 0, 0, 0, 39157, 0, 25467, 0, 0, 0, 0, 1446, 33414, 0, 0, 0, 34321, 42375, 0, 0, 0, 36203, 0, 42936, 0, 0, 0, 0, 43023, 0, 0, 0, 0, 0, 0, 24201, 0, 39076, 0, 0, 0, 41088, 0, 0, 0, 0, 0, 15712, 0, 0, 0, 0, 26226, 0, 40176, 0, 0],[29028, 14877, 0, 0, 0, 0, 0, 0, 0, 30572, 0, 0, 0, 0, 0, 0, 36716, 0, -1, 0, 45178, 0, 0, 0, 0, 0, 0, 0, 0, 0, 0, 0, 22786, 31095, 0, 0, 0, 0, 22763, 0, 46221, 36548, 0, 0, 38837, 0, 0, 0, 0, 41090, 0, 0, 39333, 29525, 0, 0, 0, 0, 0, 0, 0, 31548, 38322, 0, 0, 20712, 0, 0, 0, 0, 27050, 22599, 32228, 0, 34491, 0, 0, 0, 0, 43098, 0, 0, 0, 0, 0, 0, 0, 0],[0, 0, 0, 0, 38771, 0, 0, 0, 0, 0, 0, 0, 39240, 0, 0, 0, 38323, 38074, 0, -1, 0, 0, 22927, 0, 0, 34299, 0, 0, 44005, 0, 0, 0, 45366, 0, 0, 0, 0, 0, 45761, 0, 0, 0, 0, 0, 0, 26941, 0, 31884, 0, 0, 0, 25354, 0, 0, 0, 0, 0, 0, 0, 7597, 37216, 0, 0, 26260, 0, 0, 0, 0, 0, 0, 21593, 0, 0, 34360, 0, 0, 0, 0, 0, 0, 36149, 0, 0, 0, 27952, 0, 0, 0],[0, 32056, 0, 39528, 0, 0, 0, 0, 41673, 44043, 44250, 40234, 0, 32683, 0, 0, 0, 43853, 45178, 0, -1, 0, 0, 0, 21711, 0, 0, 0, 0, 43123, 0, 0, 0, 0, 0, 13115, 0, 0, 27133, 0, 23937, 0, 0, 25175, 0, 0, 0, 0, 0, 22864, 0, 0, 22575, 0, 0, 0, 0, 0, 39687, 0, 0, 0, 0, 0, 0, 0, 0, 0, 0, 0, 29180, 0, 44184, 0, 0, 0, 13029, 0, 0, 27017, 0, 0, 0, 0, 0, 0, 41257, 0],[0, 30793, 0, 0, 39332, 40883, 0, 0, 0, 0, 32430, 0, 45029, 0, 41012, 27365, 0, 0, 0, 0, 0, -1, 30188, 0, 0, 0, 0, 0, 0, 16124, 0, 16369, 0, 0, 0, 44462, 29391, 33151, 32942, 26919, 0, 0, 13801, 0, 0, 45151, 0, 0, 0, 0, 0, 18959, 45670, 0, 0, 0, 36765, 0, 0, 32154, 0, 0, 0, 0, 0, 18118, 0, 0, 0, 0, 32588, 0, 27061, 15648, 0, 0, 0, 0, 0, 0, 0, 0, 0, 39557, 0, 0, 0, 39683],[0, 0, 0, 0, 0, 0, 0, 0, 0, 8147, 0, 0, 31828, 12437, 26179, 0, 0, 0, 0, 22927, 0, 30188, -1, 35247, 0, 0, 0, 6485, 27234, 26153, 25021, 43804, 0, 0, 0, 1424, 0, 0, 0, 0, 0, 0, 22981, 27099, 45405, 17287, 0, 0, 0, 0, 0, 0, 31661, 0, 0, 0, 0, 34791, 0, 0, 44568, 0, 0, 0, 11735, 9937, 0, 0, 21391, 0, 43896, 0, 43799, 0, 0, 0, 0, 0, 0, 0, 0, 0, 0, 37564, 0, 0, 33743, 0],[0, 0, 0, 41157, 0, 0, 0, 0, 38905, 0, 0, 44735, 0, 0, 0, 0, 0, 20878, 0, 0, 0, 0, 35247, -1, 15163, 33162, 43855, 0, 0, 0, 0, 0, 13034, 0, 0, 27290, 0, 40357, 0, 0, 46270, 0, 40444, 0, 0, 0, 0, 26825, 29632, 10658, 0, 0, 0, 41356, 0, 0, 30384, 0, 0, 0, 0, 0, 39032, 29314, 36641, 0, 0, 0, 0, 0, 26848, 0, 0, 0, 0, 0, 0, 0, 0, 0, 42425, 0, 0, 0, 0, 0, 0, 0],[0, 0, 0, 43711, 0, 10578, 0, 0, 21837, 0, 41750, 0, 0, 0, 0, 0, 0, 0, 0, 0, 21711, 0, 0, 15163, -1, 0, 0, 0, 0, 34818, 46215, 0, 40988, 0, 0, 0, 0, 0, 0, 0, 0, 0, 0, 0, 0, 25100, 0, 0, 0, 0, 0, 0, 0, 0, 41779, 0, 0, 0, 0, 0, 0, 0, 0, 0, 21157, 36126, 0, 0, 0, 0, 0, 0, 0, 0, 0, 0, 0, 0, 44142, 26515, 0, 0, 0, 0, 0, 0, 43831, 35603],[35898, 0, 0, 0, 0, 39184, 0, 28119, 0, 0, 0, 0, 0, 0, 0, 0, 0, 0, 0, 34299, 0, 0, 0, 33162, 0, -1, 0, 0, 0, 0, 24292, 42296, 0, 0, 0, 0, 0, 23796, 0, 0, 0, 0, 22289, 0, 0, 0, 0, 0, 0, 16430, 0, 0, 0, 0, 0, 0, 0, 0, 0, 0, 45244, 15595, 0, 17260, 0, 32290, 0, 40176, 0, 0, 0, 0, 0, 0, 0, 0, 0, 0, 0, 0, 0, 0, 36641, 0, 0, 0, 0, 0],[36748, 0, 34791, 0, 0, 18515, 0, 0, 0, 0, 0, 0, 0, 0, 0, 0, 0, 13903, 0, 0, 0, 0, 0, 43855, 0, 0, -1, 0, 0, 0, 16734, 0, 12703, 0, 0, 0, 0, 32789, 0, 0, 0, 0, 0, 0, 0, 0, 0, 32228, 44326, 25817, 37700, 0, 38744, 30628, 0, 21136, 35808, 0, 0, 35932, 0, 0, 0, 32917, 0, 0, 37700, 29120, 30482, 0, 0, 45728, 0, 0, 34368, 44021, 0, 8643, 0, 0, 0, 34578, 0, 40608, 43801, 2354, 0, 0],[0, 0, 0, 0, 34563, 0, 0, 0, 0, 0, 0, 41374, 0, 0, 27102, 0, 0, 0, 0, 0, 0, 0, 6485, 0, 0, 0, 0, -1, 0, 39558, 0, 37995, 44275, 0, 0, 0, 0, 36840, 0, 0, 0, 0, 43424, 0, 21926, 38017, 0, 0, 0, 3889, 45002, 0, 0, 37425, 0, 0, 0, 0, 0, 0, 0, 0, 0, 0, 0, 0, 43123, 0, 0, 41461, 0, 0, 0, 0, 0, 0, 0, 0, 29102, 0, 20963, 0, 0, 42474, 0, 39490, 25937, 0],[0, 33639, 0, 0, 0, 0, 6413, 0, 32472, 34837, 46039, 35675, 38875, 0, 0, 17256, 0, 0, 0, 44005, 0, 0, 27234, 0, 0, 0, 0, 0, -1, 0, 0, 41192, 44825, 0, 0, 0, 0, 0, 0, 28759, 0, 0, 0, 0, 0, 34013, 0, 0, 0, 0, 0, 0, 0, 34088, 0, 37627, 0, 0, 37247, 38762, 41135, 0, 0, 0, 0, 33415, 0, 0, 0, 0, 0, 0, 0, 0, 26951, 0, 44937, 0, 16973, 41775, 13434, 0, 0, 0, 0, 45090, 0, 9497],[0, 0, 0, 21836, 0, 0, 23315, 0, 43681, 0, 0, 29845, 44033, 0, 0, 0, 0, 0, 0, 0, 43123, 16124, 26153, 0, 34818, 0, 0, 39558, 0, -1, 0, 0, 43301, 0, 0, 0, 0, 11181, 31592, 0, 35646, 0, 0, 0, 0, 0, 0, 0, 0, 0, 0, 0, 0, 0, 0, 0, 0, 0, 0, 0, 0, 0, 46029, 0, 0, 0, 0, 11267, 0, 15438, 0, 1719, 28954, 0, 0, 9466, 0, 28431, 0, 24496, 0, 0, 42125, 0, 33879, 0, 9957, 0],[9479, 45355, 0, 0, 0, 0, 0, 0, 0, 0, 38604, 32927, 0, 40128, 37385, 0, 0, 34046, 0, 0, 0, 0, 25021, 0, 46215, 24292, 16734, 0, 0, 0, -1, 32175, 0, 0, 0, 0, 12118, 0, 0, 0, 0, 0, 23545, 0, 0, 0, 0, 0, 0, 32191, 0, 0, 0, 0, 40683, 0, 15755, 0, 0, 0, 0, 0, 0, 0, 40249, 0, 0, 0, 0, 0, 0, 0, 0, 0, 0, 0, 0, 0, 0, 0, 0, 14436, 29499, 42095, 0, 32255, 40369, 0],[0, 0, 0, 25883, 0, 0, 0, 0, 0, 0, 43216, 18096, 45950, 0, 0, 39356, 0, 0, 0, 0, 0, 16369, 43804, 0, 0, 42296, 0, 37995, 41192, 0, 32175, -1, 0, 0, 0, 0, 0, 0, 0, 0, 0, 0, 0, 20792, 0, 0, 0, 0, 0, 0, 0, 31642, 0, 0, 0, 0, 0, 0, 0, 0, 0, 0, 27300, 0, 0, 20628, 0, 45835, 0, 0, 36708, 0, 0, 21428, 0, 0, 0, 0, 0, 0, 0, 0, 0, 0, 0, 0, 0, 0],[0, 34535, 0, 0, 0, 0, 0, 46084, 0, 0, 35089, 0, 0, 0, 0, 0, 39384, 0, 22786, 45366, 0, 0, 0, 13034, 40988, 0, 12703, 44275, 44825, 43301, 0, 0, -1, 23289, 38727, 43519, 0, 0, 7318, 0, 0, 0, 45195, 0, 15556, 0, 0, 0, 0, 30332, 27387, 0, 19965, 0, 0, 0, 0, 20649, 0, 0, 0, 0, 0, 0, 0, 0, 0, 0, 0, 0, 0, 0, 0, 0, 0, 0, 28088, 0, 0, 0, 43959, 0, 0, 0, 0, 0, 0, 42609],[0, 0, 0, 44995, 0, 0, 31615, 38581, 0, 0, 42471, 0, 0, 0, 0, 23665, 0, 0, 31095, 0, 0, 0, 0, 0, 0, 0, 0, 0, 0, 0, 0, 0, 23289, -1, 0, 0, 0, 0, 38401, 0, 35053, 0, 0, 0, 37277, 0, 20848, 0, 0, 16470, 0, 0, 45927, 37857, 0, 0, 0, 0, 0, 0, 0, 0, 0, 0, 0, 0, 0, 33193, 0, 0, 0, 0, 0, 0, 0, 33569, 0, 40829, 32757, 0, 0, 28062, 0, 0, 0, 0, 0, 0],[0, 0, 0, 0, 0, 38708, 45020, 0, 30254, 0, 32479, 0, 0, 0, 0, 0, 40885, 0, 0, 0, 0, 0, 0, 0, 0, 0, 0, 0, 0, 0, 0, 0, 38727, 0, -1, 0, 45143, 0, 45753, 0, 0, 39682, 0, 0, 23395, 0, 0, 0, 0, 0, 37118, 42192, 0, 0, 0, 0, 0, 0, 0, 0, 43895, 0, 0, 0, 0, 19263, 0, 0, 0, 0, 0, 0, 0, 36973, 17312, 0, 0, 0, 0, 0, 0, 0, 0, 0, 0, 0, 0, 20339],[37155, 40308, 0, 0, 0, 0, 13580, 0, 0, 38819, 26074, 36280, 0, 24601, 20396, 39547, 0, 39157, 0, 0, 13115, 44462, 1424, 27290, 0, 0, 0, 0, 0, 0, 0, 0, 43519, 0, 0, -1, 0, 0, 0, 0, 0, 39455, 0, 46302, 0, 0, 0, 42202, 0, 43127, 0, 0, 30421, 0, 0, 0, 37178, 0, 0, 0, 43705, 0, 0, 0, 40142, 13968, 0, 35524, 22085, 0, 40603, 0, 0, 20947, 0, 0, 0, 0, 0, 0, 0, 0, 0, 41374, 0, 0, 0, 36784],[0, 0, 0, 0, 0, 42364, 0, 0, 0, 0, 0, 0, 0, 0, 0, 7853, 0, 0, 0, 0, 0, 29391, 0, 0, 0, 0, 0, 0, 0, 0, 12118, 0, 0, 0, 45143, 0, -1, 0, 0, 0, 31158, 0, 0, 0, 0, 0, 27535, 0, 25957, 0, 0, 0, 30324, 0, 0, 0, 21913, 2388, 0, 0, 0, 0, 0, 0, 0, 0, 0, 0, 0, 45988, 0, 0, 0, 0, 0, 0, 42697, 28118, 0, 0, 0, 29973, 0, 0, 26118, 0, 40971, 0],[0, 0, 0, 0, 0, 0, 0, 0, 39437, 0, 0, 0, 0, 0, 0, 0, 0, 25467, 0, 0, 0, 33151, 0, 40357, 0, 23796, 32789, 36840, 0, 11181, 0, 0, 0, 0, 0, 0, 0, -1, 41587, 33946, 0, 0, 0, 0, 0, 38536, 44842, 0, 0, 0, 38266, 0, 18100, 0, 0, 40432, 0, 0, 29450, 0, 0, 0, 33588, 0, 0, 0, 0, 29913, 0, 0, 0, 23598, 0, 45618, 0, 0, 0, 0, 0, 31479, 0, 31306, 0, 19749, 0, 0, 46009, 29872],[0, 45158, 0, 0, 0, 0, 24898, 30598, 0, 0, 0, 28489, 0, 0, 0, 0, 0, 0, 22763, 45761, 27133, 32942, 0, 0, 0, 0, 0, 0, 0, 31592, 0, 0, 7318, 38401, 45753, 0, 0, 41587, -1, 40485, 40488, 0, 0, 0, 0, 32084, 0, 0, 0, 0, 0, 0, 0, 0, 0, 0, 8777, 0, 0, 35676, 0, 0, 0, 41814, 0, 0, 42565, 0, 38301, 0, 0, 0, 39637, 0, 0, 0, 44948, 0, 19678, 0, 0, 0, 0, 0, 0, 0, 41422, 42421],[0, 0, 15701, 0, 0, 0, 24571, 30206, 0, 0, 0, 0, 26116, 0, 0, 0, 0, 0, 0, 0, 0, 26919, 0, 0, 0, 0, 0, 0, 28759, 0, 0, 0, 0, 0, 0, 0, 0, 33946, 40485, -1, 0, 0, 0, 32510, 0, 0, 36367, 43865, 0, 38701, 0, 0, 0, 0, 0, 0, 0, 0, 0, 0, 0, 0, 0, 0, 0, 0, 0, 0, 31005, 0, 0, 0, 0, 0, 0, 0, 37166, 8385, 0, 0, 0, 0, 0, 0, 0, 44747, 0, 34617],[25424, 0, 0, 39581, 28391, 0, 0, 0, 0, 0, 0, 0, 0, 0, 0, 0, 0, 0, 46221, 0, 23937, 0, 0, 46270, 0, 0, 0, 0, 0, 35646, 0, 0, 0, 35053, 0, 0, 31158, 0, 40488, 0, -1, 0, 0, 0, 0, 22081, 0, 0, 0, 0, 39585, 43704, 0, 0, 12117, 0, 0, 0, 0, 0, 0, 31518, 0, 0, 0, 0, 0, 34228, 0, 22318, 0, 0, 0, 45581, 0, 0, 0, 0, 0, 0, 0, 43296, 0, 0, 0, 0, 0, 0],[20638, 0, 0, 0, 0, 0, 0, 0, 0, 44926, 0, 0, 0, 0, 0, 40717, 8551, 0, 36548, 0, 0, 0, 0, 0, 0, 0, 0, 0, 0, 0, 0, 0, 0, 0, 39682, 39455, 0, 0, 0, 0, 0, -1, 0, 0, 0, 0, 0, 25964, 0, 0, 0, 0, 0, 0, 0, 0, 29456, 0, 0, 16795, 0, 0, 0, 0, 26772, 0, 25801, 0, 0, 0, 40662, 0, 0, 0, 25846, 0, 0, 37060, 0, 22877, 0, 0, 44306, 0, 0, 0, 0, 36009],[0, 36025, 0, 33965, 0, 0, 0, 0, 0, 0, 0, 0, 0, 42226, 0, 2465, 0, 1446, 0, 0, 0, 13801, 22981, 40444, 0, 22289, 0, 43424, 0, 0, 23545, 0, 45195, 0, 0, 0, 0, 0, 0, 0, 0, 0, -1, 0, 42287, 0, 0, 0, 39198, 8774, 0, 0, 0, 40429, 34756, 0, 0, 0, 42508, 0, 0, 0, 0, 0, 0, 0, 0, 0, 0, 34341, 34455, 21024, 0, 40900, 45166, 0, 45023, 0, 0, 0, 0, 0, 0, 0, 0, 0, 0, 0],[0, 0, 0, 0, 0, 0, 0, 0, 35015, 0, 20693, 0, 0, 25735, 0, 4030, 0, 33414, 0, 0, 25175, 0, 27099, 0, 0, 0, 0, 0, 0, 0, 0, 20792, 0, 0, 0, 46302, 0, 0, 0, 32510, 0, 0, 0, -1, 41260, 0, 0, 45228, 18720, 0, 0, 22331, 0, 0, 0, 0, 0, 29660, 0, 18749, 0, 34806, 0, 0, 0, 0, 9257, 0, 0, 0, 0, 0, 0, 0, 0, 0, 37518, 0, 0, 0, 0, 0, 37970, 0, 0, 0, 0, 0],[0, 0, 0, 0, 0, 0, 34767, 0, 0, 0, 0, 0, 0, 0, 0, 0, 0, 0, 38837, 0, 0, 0, 45405, 0, 0, 0, 0, 21926, 0, 0, 0, 0, 15556, 37277, 23395, 0, 0, 0, 0, 0, 0, 0, 42287, 41260, -1, 0, 0, 39708, 0, 0, 26590, 0, 16097, 0, 0, 0, 0, 0, 42654, 0, 0, 0, 32909, 0, 0, 0, 0, 0, 0, 0, 0, 0, 0, 0, 0, 39615, 0, 0, 18778, 0, 0, 0, 0, 34625, 0, 0, 0, 0],[13281, 0, 0, 0, 0, 0, 0, 0, 25159, 41942, 36136, 0, 42367, 0, 31801, 0, 0, 0, 0, 26941, 0, 45151, 17287, 0, 25100, 0, 0, 38017, 34013, 0, 0, 0, 0, 0, 0, 0, 0, 38536, 32084, 0, 22081, 0, 0, 0, 0, -1, 0, 0, 0, 0, 0, 0, 32860, 0, 35161, 0, 0, 0, 33723, 0, 0, 0, 40147, 0, 0, 0, 25057, 11771, 0, 0, 0, 0, 39572, 0, 0, 0, 21128, 0, 38803, 0, 0, 0, 0, 0, 40446, 0, 0, 0],[0, 0, 0, 39838, 0, 0, 44991, 0, 39774, 0, 0, 17900, 0, 0, 43333, 0, 0, 0, 0, 0, 0, 0, 0, 0, 0, 0, 0, 0, 0, 0, 0, 0, 0, 20848, 0, 0, 27535, 44842, 0, 36367, 0, 0, 0, 0, 0, 0, -1, 37196, 38833, 0, 0, 0, 0, 0, 0, 0, 0, 0, 0, 0, 0, 0, 0, 0, 0, 36921, 33869, 0, 0, 0, 0, 0, 0, 0, 18641, 0, 0, 0, 0, 0, 45125, 0, 0, 0, 36055, 30657, 0, 0],[0, 0, 0, 32327, 0, 0, 19678, 25970, 0, 0, 0, 0, 41909, 0, 0, 0, 46092, 34321, 0, 31884, 0, 0, 0, 26825, 0, 0, 32228, 0, 0, 0, 0, 0, 0, 0, 0, 42202, 0, 0, 0, 43865, 0, 25964, 0, 45228, 39708, 0, 37196, -1, 0, 45703, 0, 0, 0, 19871, 18978, 0, 26613, 0, 0, 0, 0, 40801, 0, 0, 40138, 0, 0, 0, 0, 0, 0, 0, 31403, 0, 0, 34732, 0, 44438, 33033, 0, 0, 45404, 0, 35306, 12857, 36206, 0, 0],[0, 35507, 44798, 0, 0, 0, 0, 0, 41305, 0, 0, 0, 0, 0, 46010, 0, 0, 42375, 0, 0, 0, 0, 0, 29632, 0, 0, 44326, 0, 0, 0, 0, 0, 0, 0, 0, 0, 25957, 0, 0, 0, 0, 0, 39198, 18720, 0, 0, 38833, 0, -1, 0, 23427, 0, 0, 0, 33437, 0, 30576, 5784, 0, 0, 45211, 0, 0, 0, 7111, 0, 39952, 0, 45835, 33021, 0, 19651, 0, 0, 0, 0, 0, 0, 0, 0, 0, 41212, 0, 0, 0, 27639, 0, 0],[19305, 0, 30807, 0, 0, 0, 0, 30362, 11997, 0, 34210, 0, 0, 0, 0, 0, 11977, 0, 41090, 0, 22864, 0, 0, 10658, 0, 16430, 25817, 3889, 0, 0, 32191, 0, 30332, 16470, 0, 43127, 0, 0, 0, 38701, 0, 0, 8774, 0, 0, 0, 0, 45703, 0, -1, 26650, 0, 0, 0, 5275, 34070, 13301, 0, 30844, 27437, 0, 0, 0, 0, 0, 0, 12868, 0, 39689, 0, 4153, 0, 0, 35578, 0, 0, 0, 0, 33452, 30687, 0, 25762, 0, 0, 0, 0, 0, 0],[0, 0, 0, 0, 0, 45555, 0, 0, 0, 0, 24258, 0, 12734, 0, 46271, 0, 0, 0, 0, 0, 0, 0, 0, 0, 0, 0, 37700, 45002, 0, 0, 0, 0, 27387, 0, 37118, 0, 0, 38266, 0, 0, 39585, 0, 0, 0, 26590, 0, 0, 0, 23427, 26650, -1, 0, 0, 0, 30270, 0, 0, 0, 41811, 0, 45316, 21435, 2469, 0, 0, 0, 0, 42397, 0, 0, 0, 11452, 0, 45680, 0, 0, 0, 0, 14220, 0, 34919, 0, 39808, 0, 13390, 0, 0, 33349],[0, 0, 0, 0, 0, 0, 0, 0, 0, 0, 0, 0, 19180, 41159, 0, 44236, 0, 0, 0, 25354, 0, 18959, 0, 0, 0, 0, 0, 0, 0, 0, 0, 31642, 0, 0, 42192, 0, 0, 0, 0, 0, 43704, 0, 0, 22331, 0, 0, 0, 0, 0, 0, 0, -1, 19872, 0, 0, 0, 0, 0, 15498, 26498, 0, 30288, 0, 0, 32547, 0, 0, 0, 0, 0, 34778, 0, 26472, 0, 0, 0, 0, 24532, 27737, 0, 0, 0, 0, 0, 0, 0, 0, 0],[0, 0, 21034, 0, 36434, 0, 0, 0, 11578, 0, 0, 0, 0, 0, 45618, 0, 44690, 36203, 39333, 0, 22575, 45670, 31661, 0, 0, 0, 38744, 0, 0, 0, 0, 0, 19965, 45927, 0, 30421, 30324, 18100, 0, 0, 0, 0, 0, 0, 16097, 32860, 0, 0, 0, 0, 0, 19872, -1, 35076, 28323, 0, 0, 0, 39401, 0, 42233, 0, 0, 0, 0, 24810, 0, 0, 0, 0, 0, 0, 0, 0, 34441, 0, 20299, 0, 23270, 21183, 0, 0, 0, 0, 0, 0, 0, 0],[31641, 0, 44362, 0, 0, 0, 0, 38521, 0, 34103, 0, 21811, 0, 0, 41181, 0, 0, 0, 29525, 0, 0, 0, 0, 41356, 0, 0, 30628, 37425, 34088, 0, 0, 0, 0, 37857, 0, 0, 0, 0, 0, 0, 0, 0, 40429, 0, 0, 0, 0, 19871, 0, 0, 0, 0, 35076, -1, 0, 44334, 0, 19162, 0, 30660, 0, 0, 0, 0, 15077, 0, 39142, 29881, 0, 0, 0, 0, 0, 0, 0, 0, 0, 0, 0, 40986, 0, 0, 0, 0, 27247, 40767, 0, 0],[0, 0, 32727, 45670, 0, 0, 0, 0, 27672, 42978, 0, 0, 0, 0, 0, 39458, 0, 42936, 0, 0, 0, 0, 0, 0, 41779, 0, 0, 0, 0, 0, 40683, 0, 0, 0, 0, 0, 0, 0, 0, 0, 12117, 0, 34756, 0, 0, 35161, 0, 18978, 33437, 5275, 30270, 0, 28323, 0, -1, 0, 0, 0, 29314, 0, 26048, 0, 29054, 0, 25546, 0, 12447, 27649, 0, 12643, 0, 29039, 45072, 42510, 0, 0, 0, 34732, 31933, 0, 0, 0, 0, 35973, 0, 42526, 0, 0],[0, 0, 0, 0, 0, 0, 0, 17864, 0, 0, 0, 35049, 0, 0, 0, 0, 0, 0, 0, 0, 0, 0, 0, 0, 0, 0, 21136, 0, 37627, 0, 0, 0, 0, 0, 0, 0, 0, 40432, 0, 0, 0, 0, 0, 0, 0, 0, 0, 0, 0, 34070, 0, 0, 0, 44334, 0, -1, 0, 45471, 0, 0, 0, 0, 0, 0, 0, 34382, 0, 0, 0, 7708, 0, 0, 0, 0, 0, 0, 0, 0, 17620, 0, 0, 0, 0, 0, 0, 33686, 11583, 0],[0, 0, 12829, 0, 0, 0, 0, 0, 0, 15367, 0, 0, 0, 3720, 0, 0, 0, 0, 0, 0, 0, 36765, 0, 30384, 0, 0, 35808, 0, 0, 0, 15755, 0, 0, 0, 0, 37178, 21913, 0, 8777, 0, 0, 29456, 0, 0, 0, 0, 0, 26613, 30576, 13301, 0, 0, 0, 0, 0, 0, -1, 0, 0, 0, 0, 0, 18730, 0, 0, 0, 0, 43049, 0, 0, 0, 0, 29271, 0, 0, 0, 0, 28925, 0, 0, 39615, 0, 38825, 0, 40093, 0, 0, 0],[0, 0, 0, 0, 0, 0, 0, 0, 36554, 0, 0, 0, 0, 0, 0, 37306, 0, 0, 0, 0, 0, 0, 34791, 0, 0, 0, 0, 0, 0, 0, 0, 0, 20649, 0, 0, 0, 2388, 0, 0, 0, 0, 0, 0, 29660, 0, 0, 0, 0, 5784, 0, 0, 0, 0, 19162, 0, 45471, 0, -1, 0, 0, 0, 13219, 0, 0, 0, 0, 26616, 0, 0, 36027, 0, 34938, 0, 0, 36804, 40618, 0, 36159, 31132, 0, 0, 45525, 0, 0, 0, 36781, 0, 0],[24362, 0, 0, 0, 15829, 22088, 0, 16049, 0, 34759, 0, 0, 0, 0, 0, 29126, 0, 0, 0, 0, 39687, 0, 0, 0, 0, 0, 0, 0, 37247, 0, 0, 0, 0, 0, 0, 0, 0, 29450, 0, 0, 0, 0, 42508, 0, 42654, 33723, 0, 0, 0, 30844, 41811, 15498, 39401, 0, 29314, 0, 0, 0, -1, 0, 42876, 0, 0, 0, 14132, 0, 0, 12275, 0, 0, 0, 0, 0, 0, 0, 0, 0, 0, 0, 0, 0, 0, 0, 0, 0, 0, 0, 0],[0, 0, 30374, 0, 24916, 28629, 0, 30183, 0, 0, 41189, 45392, 31995, 0, 0, 0, 0, 43023, 0, 7597, 0, 32154, 0, 0, 0, 0, 35932, 0, 38762, 0, 0, 0, 0, 0, 0, 0, 0, 0, 35676, 0, 0, 16795, 0, 18749, 0, 0, 0, 0, 0, 27437, 0, 26498, 0, 30660, 0, 0, 0, 0, 0, -1, 0, 19095, 0, 31749, 0, 0, 28327, 0, 0, 0, 0, 0, 0, 41546, 0, 0, 42747, 0, 0, 31309, 0, 0, 42482, 0, 0, 26886, 0, 0],[26358, 0, 33161, 0, 41914, 0, 0, 0, 0, 0, 0, 41394, 45837, 45369, 0, 42424, 25941, 0, 0, 37216, 0, 0, 44568, 0, 0, 45244, 0, 0, 41135, 0, 0, 0, 0, 0, 43895, 43705, 0, 0, 0, 0, 0, 0, 0, 0, 0, 0, 0, 0, 45211, 0, 45316, 0, 42233, 0, 26048, 0, 0, 0, 42876, 0, -1, 0, 28594, 0, 0, 25731, 0, 0, 0, 31815, 0, 0, 44044, 29976, 0, 0, 37212, 0, 0, 26821, 0, 0, 45228, 0, 0, 0, 37619, 0],[28299, 45852, 0, 0, 0, 30368, 0, 27818, 0, 0, 0, 0, 0, 0, 0, 0, 0, 0, 31548, 0, 0, 0, 0, 0, 0, 15595, 0, 0, 0, 0, 0, 0, 0, 0, 0, 0, 0, 0, 0, 0, 31518, 0, 0, 34806, 0, 0, 0, 40801, 0, 0, 21435, 30288, 0, 0, 0, 0, 0, 13219, 0, 19095, 0, -1, 0, 0, 41348, 0, 0, 0, 23746, 0, 0, 0, 0, 0, 39983, 27526, 0, 0, 0, 22067, 0, 42417, 8667, 0, 0, 0, 0, 0],[0, 0, 35631, 0, 0, 0, 0, 0, 0, 0, 0, 0, 0, 36078, 0, 0, 0, 0, 38322, 0, 0, 0, 0, 39032, 0, 0, 0, 0, 0, 46029, 0, 27300, 0, 0, 0, 0, 0, 33588, 0, 0, 0, 0, 0, 0, 32909, 40147, 0, 0, 0, 0, 2469, 0, 0, 0, 29054, 0, 18730, 0, 0, 0, 28594, 0, -1, 0, 0, 0, 0, 0, 0, 0, 0, 0, 0, 0, 0, 0, 0, 41245, 0, 0, 0, 44554, 0, 34904, 0, 0, 0, 20664],[0, 0, 0, 35326, 0, 0, 0, 0, 39422, 0, 0, 16132, 0, 0, 0, 0, 0, 0, 0, 26260, 0, 0, 0, 29314, 0, 17260, 32917, 0, 0, 0, 0, 0, 0, 0, 0, 0, 0, 0, 41814, 0, 0, 0, 0, 0, 0, 0, 0, 0, 0, 0, 0, 0, 0, 0, 0, 0, 0, 0, 0, 31749, 0, 0, 0, -1, 0, 0, 39341, 0, 0, 0, 37059, 35858, 0, 0, 0, 0, 34634, 0, 15671, 0, 0, 0, 0, 0, 0, 0, 0, 0],[0, 0, 0, 0, 0, 0, 19671, 0, 0, 0, 0, 29492, 43796, 0, 0, 0, 27565, 0, 0, 0, 0, 0, 11735, 36641, 21157, 0, 0, 0, 0, 0, 40249, 0, 0, 0, 0, 40142, 0, 0, 0, 0, 0, 26772, 0, 0, 0, 0, 0, 40138, 7111, 0, 0, 32547, 0, 15077, 25546, 0, 0, 0, 14132, 0, 0, 41348, 0, 0, -1, 0, 5228, 0, 0, 0, 0, 0, 0, 0, 35612, 0, 0, 0, 0, 34949, 31868, 0, 0, 40736, 0, 0, 31882, 40588],[34562, 22070, 0, 0, 0, 0, 17836, 0, 0, 0, 0, 0, 0, 0, 31450, 0, 34864, 0, 20712, 0, 0, 18118, 9937, 0, 36126, 32290, 0, 0, 33415, 0, 0, 20628, 0, 0, 19263, 13968, 0, 0, 0, 0, 0, 0, 0, 0, 0, 0, 36921, 0, 0, 0, 0, 0, 24810, 0, 0, 34382, 0, 0, 0, 0, 25731, 0, 0, 0, 0, -1, 25478, 0, 23863, 0, 0, 0, 0, 0, 0, 0, 46247, 0, 0, 0, 0, 42397, 0, 0, 3390, 40885, 0, 0],[27620, 0, 29914, 33848, 0, 0, 0, 0, 0, 0, 0, 0, 0, 0, 0, 0, 0, 24201, 0, 0, 0, 0, 0, 0, 0, 0, 37700, 43123, 0, 0, 0, 0, 0, 0, 0, 0, 0, 0, 42565, 0, 0, 25801, 0, 9257, 0, 25057, 33869, 0, 39952, 12868, 0, 0, 0, 39142, 12447, 0, 0, 26616, 0, 28327, 0, 0, 0, 39341, 5228, 25478, -1, 0, 0, 0, 43519, 0, 0, 0, 25726, 0, 0, 0, 0, 0, 0, 0, 43885, 25802, 0, 41784, 0, 0],[25600, 0, 35463, 0, 0, 44164, 0, 35060, 0, 40528, 0, 0, 0, 44821, 0, 2451, 0, 0, 0, 0, 0, 0, 0, 0, 0, 40176, 29120, 0, 0, 11267, 0, 45835, 0, 33193, 0, 35524, 0, 29913, 0, 0, 34228, 0, 0, 0, 0, 11771, 0, 0, 0, 0, 42397, 0, 0, 29881, 27649, 0, 43049, 0, 12275, 0, 0, 0, 0, 0, 0, 0, 0, -1, 0, 0, 0, 0, 0, 0, 0, 0, 0, 0, 32525, 0, 0, 23359, 0, 0, 0, 0, 0, 0],[0, 0, 0, 39390, 34374, 0, 0, 0, 0, 0, 0, 0, 0, 0, 45156, 0, 0, 39076, 0, 0, 0, 0, 21391, 0, 0, 0, 30482, 0, 0, 0, 0, 0, 0, 0, 0, 22085, 0, 0, 38301, 31005, 0, 0, 0, 0, 0, 0, 0, 0, 45835, 39689, 0, 0, 0, 0, 0, 0, 0, 0, 0, 0, 0, 23746, 0, 0, 0, 23863, 0, 0, -1, 27356, 35193, 14121, 0, 0, 0, 23157, 0, 0, 0, 0, 0, 0, 0, 0, 0, 0, 0, 0],[0, 0, 40113, 0, 0, 0, 0, 16071, 0, 0, 32488, 0, 0, 0, 0, 0, 0, 0, 0, 0, 0, 0, 0, 0, 0, 0, 0, 41461, 0, 15438, 0, 0, 0, 0, 0, 0, 45988, 0, 0, 0, 22318, 0, 34341, 0, 0, 0, 0, 0, 33021, 0, 0, 0, 0, 0, 12643, 7708, 0, 36027, 0, 0, 31815, 0, 0, 0, 0, 0, 0, 0, 27356, -1, 0, 0, 0, 22705, 0, 0, 0, 24371, 0, 0, 0, 0, 0, 0, 45986, 24356, 0, 25759],[0, 0, 0, 0, 0, 0, 43766, 0, 0, 0, 0, 0, 38973, 41393, 29614, 39191, 0, 0, 27050, 21593, 29180, 32588, 43896, 26848, 0, 0, 0, 0, 0, 0, 0, 36708, 0, 0, 0, 40603, 0, 0, 0, 0, 0, 40662, 34455, 0, 0, 0, 0, 0, 0, 4153, 0, 34778, 0, 0, 0, 0, 0, 0, 0, 0, 0, 0, 0, 37059, 0, 0, 43519, 0, 35193, 0, -1, 0, 0, 0, 0, 34661, 0, 0, 44538, 29448, 0, 31973, 9660, 0, 39725, 0, 0, 0],[0, 0, 0, 0, 0, 0, 0, 43413, 0, 34377, 0, 0, 0, 34089, 0, 0, 29731, 0, 22599, 0, 0, 0, 0, 0, 0, 0, 45728, 0, 0, 1719, 0, 0, 0, 0, 0, 0, 0, 23598, 0, 0, 0, 0, 21024, 0, 0, 0, 0, 0, 19651, 0, 11452, 0, 0, 0, 29039, 0, 0, 34938, 0, 0, 0, 0, 0, 35858, 0, 0, 0, 0, 14121, 0, 0, -1, 0, 0, 0, 14570, 0, 0, 4512, 0, 0, 26664, 0, 0, 0, 43439, 0, 18052],[0, 31798, 0, 36099, 0, 0, 0, 0, 28845, 0, 0, 5512, 0, 38160, 12355, 0, 0, 41088, 32228, 0, 44184, 27061, 43799, 0, 0, 0, 0, 0, 0, 28954, 0, 0, 0, 0, 0, 0, 0, 0, 39637, 0, 0, 0, 0, 0, 0, 39572, 0, 31403, 0, 0, 0, 26472, 0, 0, 45072, 0, 29271, 0, 0, 0, 44044, 0, 0, 0, 0, 0, 0, 0, 0, 0, 0, 0, -1, 0, 0, 0, 37411, 0, 0, 0, 0, 44655, 34879, 0, 0, 45207, 0, 28988],[0, 0, 0, 0, 0, 0, 0, 26516, 0, 0, 28195, 23277, 0, 0, 0, 0, 38790, 0, 0, 34360, 0, 15648, 0, 0, 0, 0, 0, 0, 0, 0, 0, 21428, 0, 0, 36973, 20947, 0, 45618, 0, 0, 45581, 0, 40900, 0, 0, 0, 0, 0, 0, 35578, 45680, 0, 0, 0, 42510, 0, 0, 0, 0, 41546, 29976, 0, 0, 0, 0, 0, 0, 0, 0, 22705, 0, 0, 0, -1, 0, 0, 0, 37210, 0, 0, 43730, 0, 45321, 0, 0, 0, 0, 0],[33487, 0, 0, 0, 0, 0, 0, 37548, 42539, 0, 0, 45442, 0, 0, 0, 0, 0, 0, 34491, 0, 0, 0, 0, 0, 0, 0, 34368, 0, 26951, 0, 0, 0, 0, 0, 17312, 0, 0, 0, 0, 0, 0, 25846, 45166, 0, 0, 0, 18641, 0, 0, 0, 0, 0, 34441, 0, 0, 0, 0, 36804, 0, 0, 0, 39983, 0, 0, 35612, 0, 25726, 0, 0, 0, 0, 0, 0, 0, -1, 41284, 0, 34367, 0, 12220, 39383, 22102, 0, 38574, 0, 0, 20974, 0],[0, 0, 0, 0, 0, 0, 25577, 0, 38031, 0, 0, 38342, 0, 0, 27938, 0, 27154, 0, 0, 0, 0, 0, 0, 0, 0, 0, 44021, 0, 0, 9466, 0, 0, 0, 33569, 0, 0, 0, 0, 0, 0, 0, 0, 0, 0, 39615, 0, 0, 34732, 0, 0, 0, 0, 0, 0, 0, 0, 0, 40618, 0, 0, 0, 27526, 0, 0, 0, 0, 0, 0, 23157, 0, 34661, 14570, 0, 0, 41284, -1, 0, 0, 0, 0, 0, 0, 0, 34833, 0, 0, 0, 0],[26415, 31480, 0, 0, 0, 0, 0, 0, 0, 0, 0, 0, 0, 0, 33523, 0, 0, 0, 0, 0, 13029, 0, 0, 0, 0, 0, 0, 0, 44937, 0, 0, 0, 28088, 0, 0, 0, 42697, 0, 44948, 37166, 0, 0, 45023, 37518, 0, 21128, 0, 0, 0, 0, 0, 0, 20299, 0, 0, 0, 0, 0, 0, 42747, 37212, 0, 0, 34634, 0, 46247, 0, 0, 0, 0, 0, 0, 37411, 0, 0, 0, -1, 27175, 0, 0, 0, 0, 0, 0, 0, 0, 45509, 0],[0, 0, 0, 41669, 19207, 0, 44358, 0, 0, 42650, 42775, 0, 0, 0, 45936, 33072, 0, 0, 0, 0, 0, 0, 0, 0, 0, 0, 8643, 0, 0, 28431, 0, 0, 0, 40829, 0, 0, 28118, 0, 0, 8385, 0, 37060, 0, 0, 0, 0, 0, 44438, 0, 0, 0, 24532, 0, 0, 34732, 0, 28925, 36159, 0, 0, 0, 0, 41245, 0, 0, 0, 0, 0, 0, 24371, 0, 0, 0, 37210, 34367, 0, 27175, -1, 42137, 26971, 20406, 0, 0, 5252, 0, 38841, 19126, 0],[45632, 0, 35816, 32222, 0, 25289, 0, 0, 0, 0, 0, 0, 0, 0, 0, 0, 0, 15712, 0, 0, 0, 0, 0, 0, 44142, 0, 0, 29102, 16973, 0, 0, 0, 0, 32757, 0, 0, 0, 0, 19678, 0, 0, 0, 0, 0, 18778, 38803, 0, 33033, 0, 33452, 14220, 27737, 23270, 0, 31933, 17620, 0, 31132, 0, 0, 0, 0, 0, 15671, 0, 0, 0, 32525, 0, 0, 44538, 4512, 0, 0, 0, 0, 0, 42137, -1, 0, 0, 0, 23839, 17421, 0, 26780, 32415, 44917],[0, 0, 0, 0, 0, 0, 39306, 0, 32371, 20296, 0, 40468, 31611, 42983, 0, 0, 0, 0, 43098, 0, 27017, 0, 0, 0, 26515, 0, 0, 0, 41775, 24496, 0, 0, 0, 0, 0, 0, 0, 31479, 0, 0, 0, 22877, 0, 0, 0, 0, 0, 0, 0, 30687, 0, 0, 21183, 40986, 0, 0, 0, 0, 0, 31309, 26821, 22067, 0, 0, 34949, 0, 0, 0, 0, 0, 29448, 0, 0, 0, 12220, 0, 0, 26971, 0, -1, 22284, 14825, 0, 0, 35819, 42995, 39203, 0],[0, 0, 0, 0, 0, 0, 0, 0, 43532, 0, 0, 43732, 0, 0, 0, 45576, 0, 0, 0, 36149, 0, 0, 0, 42425, 0, 0, 0, 20963, 13434, 0, 0, 0, 43959, 0, 0, 0, 0, 0, 0, 0, 0, 0, 0, 0, 0, 0, 45125, 0, 0, 0, 34919, 0, 0, 0, 0, 0, 39615, 0, 0, 0, 0, 0, 0, 0, 31868, 0, 0, 0, 0, 0, 0, 0, 0, 43730, 39383, 0, 0, 20406, 0, 22284, -1, 25685, 36492, 0, 0, 0, 0, 0],[0, 5941, 31483, 0, 0, 0, 0, 0, 0, 2831, 32339, 0, 23413, 0, 30502, 35619, 0, 0, 0, 0, 0, 0, 0, 0, 0, 0, 34578, 0, 0, 0, 14436, 0, 0, 28062, 0, 0, 29973, 31306, 0, 0, 43296, 0, 0, 0, 0, 0, 0, 45404, 41212, 25762, 0, 0, 0, 0, 0, 0, 0, 45525, 0, 0, 0, 42417, 44554, 0, 0, 42397, 0, 23359, 0, 0, 31973, 26664, 44655, 0, 22102, 0, 0, 0, 0, 14825, 25685, -1, 32073, 0, 0, 16990, 0, 33397],[0, 0, 0, 8771, 0, 33819, 0, 0, 0, 0, 0, 0, 12018, 0, 7273, 0, 0, 0, 0, 0, 0, 0, 0, 0, 0, 36641, 0, 0, 0, 42125, 29499, 0, 0, 0, 0, 0, 0, 0, 0, 0, 0, 44306, 0, 37970, 0, 0, 0, 0, 0, 0, 39808, 0, 0, 0, 0, 0, 38825, 0, 0, 42482, 45228, 8667, 0, 0, 0, 0, 43885, 0, 0, 0, 9660, 0, 34879, 45321, 0, 0, 0, 0, 23839, 0, 36492, 32073, -1, 32144, 0, 0, 0, 44451],[0, 0, 0, 0, 33615, 0, 10973, 37066, 35800, 0, 0, 0, 0, 0, 34643, 0, 38788, 26226, 0, 0, 0, 39557, 37564, 0, 0, 0, 40608, 42474, 0, 0, 42095, 0, 0, 0, 0, 41374, 0, 19749, 0, 0, 0, 0, 0, 0, 34625, 0, 0, 35306, 0, 0, 0, 0, 0, 0, 35973, 0, 0, 0, 0, 0, 0, 0, 34904, 0, 40736, 0, 25802, 0, 0, 0, 0, 0, 0, 0, 38574, 34833, 0, 5252, 17421, 0, 0, 0, 32144, -1, 0, 0, 31653, 0],[0, 0, 31985, 11770, 0, 0, 22837, 0, 0, 0, 0, 0, 0, 0, 28559, 23352, 0, 0, 0, 27952, 0, 0, 0, 0, 0, 0, 43801, 0, 0, 33879, 0, 0, 0, 0, 0, 0, 26118, 0, 0, 0, 0, 0, 0, 0, 0, 40446, 36055, 12857, 0, 0, 13390, 0, 0, 27247, 0, 0, 40093, 0, 0, 0, 0, 0, 0, 0, 0, 3390, 0, 0, 0, 45986, 39725, 0, 0, 0, 0, 0, 0, 0, 0, 35819, 0, 0, 0, 0, -1, 0, 0, 0],[0, 0, 0, 30388, 41641, 0, 0, 0, 39011, 0, 0, 27818, 0, 0, 42216, 0, 0, 40176, 0, 0, 0, 0, 0, 0, 0, 0, 2354, 39490, 45090, 0, 32255, 0, 0, 0, 0, 0, 0, 0, 0, 44747, 0, 0, 0, 0, 0, 0, 30657, 36206, 27639, 0, 0, 0, 0, 40767, 42526, 33686, 0, 36781, 0, 26886, 0, 0, 0, 0, 0, 40885, 41784, 0, 0, 24356, 0, 43439, 45207, 0, 0, 0, 0, 38841, 26780, 42995, 0, 16990, 0, 0, 0, -1, 45211, 0],[33644, 27653, 0, 7673, 0, 0, 0, 0, 40127, 0, 0, 0, 0, 0, 0, 0, 40597, 0, 0, 0, 41257, 0, 33743, 0, 43831, 0, 0, 25937, 0, 9957, 40369, 0, 0, 0, 0, 0, 40971, 46009, 41422, 0, 0, 0, 0, 0, 0, 0, 0, 0, 0, 0, 0, 0, 0, 0, 0, 11583, 0, 0, 0, 0, 37619, 0, 0, 0, 31882, 0, 0, 0, 0, 0, 0, 0, 0, 0, 20974, 0, 45509, 19126, 32415, 39203, 0, 0, 0, 31653, 0, 45211, -1, 0],[43632, 0, 5480, 0, 28209, 0, 0, 28404, 0, 0, 31475, 0, 0, 41240, 0, 40189, 0, 0, 0, 0, 0, 39683, 0, 0, 35603, 0, 0, 0, 9497, 0, 0, 0, 42609, 0, 20339, 36784, 0, 29872, 42421, 34617, 0, 36009, 0, 0, 0, 0, 0, 0, 0, 0, 33349, 0, 0, 0, 0, 0, 0, 0, 0, 0, 0, 0, 20664, 0, 40588, 0, 0, 0, 0, 25759, 0, 18052, 28988, 0, 0, 0, 0, 0, 44917, 0, 0, 33397, 44451, 0, 0, 0, 0, -1]]